param N:= 6;
param C: 1 2 3 4 5 6:=
1    0  625 1000  831 1035  859
2  625    0  528  420  790 1447
3 1000  528    0  254 1730 1848
4  831  420  254    0 1684 1690
5 1035  790 1730 1684    0  911
6  859 1447 1848 1690  911    0;
